p cnf 111 344
c t mc
3 1 0
3 2 0
-1 -2 -3 0
-4 -5 -6 0
4 5 -6 0
-4 5 6 0
4 -5 6 0
-9 7 0
-9 -8 0
-7 8 9 0
6 9 -10 0
-6 -9 -10 0
6 -9 10 0
-6 9 10 0
-12 -4 0
-12 11 0
4 -11 12 0
-13 10 0
-13 12 0
-10 -12 13 0
14 3 0
14 13 0
-3 -13 -14 0
-15 -16 -17 0
15 16 -17 0
-15 16 17 0
15 -16 17 0
-17 -18 -19 0
17 18 -19 0
-17 18 19 0
17 -18 19 0
20 -14 0
20 19 0
14 -19 -20 0
-22 21 0
-22 5 0
-21 -5 22 0
18 -23 -24 0
-18 23 -24 0
18 23 24 0
-18 -23 24 0
25 22 0
25 -24 0
-22 24 -25 0
-26 20 0
-26 -25 0
-20 25 26 0
27 5 -28 0
-27 -5 -28 0
27 -5 28 0
-27 5 28 0
29 16 0
29 6 0
-16 -6 -29 0
30 -29 0
30 -16 0
29 16 -30 0
31 -28 0
31 -30 0
28 30 -31 0
-18 -32 -33 0
18 32 -33 0
-18 32 33 0
18 -32 33 0
34 12 0
34 -33 0
-12 33 -34 0
-31 34 -35 0
31 -34 -35 0
-31 -34 35 0
31 34 35 0
38 -37 0
38 37 0
39 38 0
39 33 0
-38 -33 -39 0
-21 40 0
21 40 0
-41 40 0
-41 -11 0
-40 11 41 0
-42 -39 0
-42 41 0
39 -41 42 0
-43 36 0
-43 -42 0
-36 42 43 0
44 -23 0
44 2 0
23 -2 -44 0
45 44 0
45 -4 0
-44 4 -45 0
-46 -43 0
-46 45 0
43 -45 46 0
-47 35 0
-47 -46 0
-35 46 47 0
-26 -47 -48 0
26 47 -48 0
-26 47 48 0
26 -47 48 0
51 -49 0
51 50 0
49 -50 -51 0
53 -44 0
53 -27 0
44 27 -53 0
-54 53 0
-54 -6 0
-53 6 54 0
55 54 0
55 -24 0
-54 24 -55 0
-56 52 0
-56 55 0
-52 -55 56 0
27 -11 -57 0
-27 11 -57 0
27 11 57 0
-27 -11 57 0
58 6 0
58 -57 0
-6 57 -58 0
59 -56 0
59 -58 0
56 58 -59 0
51 59 -60 0
-51 -59 -60 0
51 -59 60 0
-51 59 60 0
62 61 0
62 33 0
-61 -33 -62 0
-60 62 -63 0
60 -62 -63 0
-60 -62 63 0
60 62 63 0
-48 63 -64 0
48 -63 -64 0
-48 -63 64 0
48 63 64 0
65 5 0
65 22 0
-5 -22 -65 0
-66 -11 -67 0
66 11 -67 0
-66 11 67 0
66 -11 67 0
68 -37 0
68 -4 0
37 4 -68 0
-69 68 0
-69 -8 0
-68 8 69 0
70 67 0
70 69 0
-67 -69 -70 0
-65 70 -71 0
65 -70 -71 0
-65 -70 71 0
65 70 71 0
-72 -44 0
-72 44 0
73 39 0
73 9 0
-39 -9 -73 0
-74 -72 0
-74 -73 0
72 73 74 0
-75 36 0
-75 41 0
-36 -41 75 0
76 74 0
76 75 0
-74 -75 -76 0
-52 18 -77 0
52 -18 -77 0
-52 -18 77 0
52 18 77 0
-78 18 0
-78 9 0
-18 -9 78 0
-79 -77 0
-79 -78 0
77 78 79 0
-80 39 0
-80 15 0
-39 -15 80 0
81 -52 0
81 80 0
52 -80 -81 0
82 81 0
82 -32 0
-81 32 -82 0
-37 82 -83 0
37 -82 -83 0
-37 -82 83 0
37 82 83 0
-84 -12 0
-84 12 0
85 83 0
85 -84 0
-83 84 -85 0
86 -79 0
86 85 0
79 -85 -86 0
-87 -76 0
-87 -86 0
76 86 87 0
88 71 0
88 87 0
-71 -87 -88 0
-64 88 -89 0
64 -88 -89 0
-64 -88 89 0
64 88 89 0
-90 8 0
-90 10 0
-8 -10 90 0
-91 -38 0
-91 -2 0
38 2 91 0
93 92 0
93 -3 0
-92 3 -93 0
-94 93 0
-94 -24 0
-93 24 94 0
-94 -18 -95 0
94 18 -95 0
-94 18 95 0
94 -18 95 0
-96 -95 0
-96 36 0
95 -36 96 0
97 91 0
97 96 0
-91 -96 -97 0
98 17 0
98 39 0
-17 -39 -98 0
36 40 -99 0
-36 -40 -99 0
36 -40 99 0
-36 40 99 0
100 98 0
100 -99 0
-98 99 -100 0
101 -97 0
101 -100 0
97 100 -101 0
102 -9 0
102 7 0
9 -7 -102 0
-101 102 -103 0
101 -102 -103 0
-101 -102 103 0
101 102 103 0
-104 -40 0
-104 66 0
40 -66 104 0
-80 -10 -105 0
80 10 -105 0
-80 10 105 0
80 -10 105 0
-106 -104 0
-106 -105 0
104 105 106 0
107 -103 0
107 -106 0
103 106 -107 0
-108 -90 0
-108 -107 0
90 107 108 0
109 -12 0
109 36 0
12 -36 -109 0
108 -109 -110 0
-108 109 -110 0
108 109 110 0
-108 -109 110 0
111 89 0
111 110 0
-89 -110 -111 0
84 13 -24 19 108 -64 0
90 -92 108 0
-19 103 60 56 82 -29 15 0
111 -51 67 5 -103 40 59 0
-12 30 -48 -52 0
64 23 -1 20 -24 46 79 87 106 -8 0
104 53 -2 -60 -107 -94 -106 -71 -86 0
-3 -72 -17 48 -101 -69 -64 107 105 0
41 -23 -73 34 -37 -111 88 0
-45 -60 -39 -16 0
-103 -82 -61 -105 31 50 33 -39 0
-14 94 103 -2 17 -63 36 -43 54 0
22 107 69 71 -78 -100 85 -48 -54 -28 0
-8 -99 -37 -83 102 43 34 -30 0
-88 -105 -23 68 37 -27 -25 -46 0
98 -6 55 -51 13 -33 0
-4 51 -58 -105 -86 -74 -11 0
25 -21 -32 45 -89 0
-26 -25 -1 -78 35 -28 0
4 -45 -26 97 -76 0
-96 5 46 74 -73 39 0
22 105 36 0
-105 11 -96 -42 21 27 -20 87 13 0
73 102 101 -92 -29 -20 -47 -8 69 -23 0
-26 -89 -15 0
59 -42 110 -90 0
63 95 -23 -3 80 -58 -60 49 10 0
88 51 -99 -28 -71 -82 61 36 -45 0
2 -80 74 0
-111 -29 -22 106 68 0
64 -73 71 62 0
-83 6 -88 42 -110 8 -59 43 -40 80 0
94 96 -52 -59 0
-5 66 76 -63 85 -52 0
107 72 -28 12 0
-70 40 67 -11 0
-71 -15 43 62 94 0
-83 -96 -105 -99 -90 -4 0
-76 -39 109 -14 -13 84 0
56 111 90 0
100 34 28 0
20 -28 -95 24 0
55 44 -68 -86 -2 64 102 35 0
-47 89 -48 0
95 -91 -37 -102 93 0
-45 -88 38 -107 -109 -36 42 -65 80 98 0
-97 -85 6 -43 28 -7 3 102 60 0
-50 60 7 49 -101 -34 85 -106 -37 -103 0
1 -21 56 -69 38 92 -84 0
75 3 -35 -105 69 0
111 -92 80 3 -48 57 97 0
13 -46 34 15 52 0
-57 -110 -29 73 -17 -23 -94 -5 -21 0
107 -81 -70 -15 -101 59 0
-38 31 91 0
54 -68 -71 36 31 40 -88 76 -97 -43 0
-76 -109 4 0
111 0
